(set-logic ALL)
(declare-fun seed0_I0_2 () Int)
(declare-fun seed0_PCTEMP_LHS_1 () Int)
(declare-fun seed0_T0_2 () String)
(declare-fun seed0_T1_2 () String)
(declare-fun seed0_T2_2 () String)
(declare-fun seed0_T3_2 () String)
(declare-fun seed0_T4_2 () String)
(declare-fun seed0_T5_2 () String)
(declare-fun seed0_T_2 () Bool)
(declare-fun seed0_T_SELECT_1 () Bool)
(declare-fun seed0_var_0xINPUT_178817 () String)
(assert (and (or (= seed0_T_SELECT_1 (not (= seed0_PCTEMP_LHS_1 (- 1)))) (or (> (div seed0_I0_2 seed0_I0_2) (div seed0_I0_2 seed0_I0_2)) (distinct (+ seed0_PCTEMP_LHS_1 (- 681)) (* seed0_PCTEMP_LHS_1 seed0_I0_2)))) (or (ite seed0_T_SELECT_1 (and (= seed0_PCTEMP_LHS_1 (+ seed0_I0_2 0)) (= seed0_var_0xINPUT_178817 (str.++ seed0_T0_2 seed0_T1_2)) (= seed0_I0_2 (str.len seed0_T4_2)) (= 0 (str.len seed0_T0_2)) (= seed0_T1_2 (str.++ seed0_T2_2 seed0_T3_2)) (= seed0_T2_2 (str.++ seed0_T4_2 seed0_T5_2)) (= seed0_T5_2 "ptrack=") (not (str.in_re seed0_T4_2 (re.++ (str.to_re "p") (str.to_re "t") (str.to_re "r") (str.to_re "a") (str.to_re "c") (str.to_re "k") (str.to_re "="))))) (and (= seed0_PCTEMP_LHS_1 (- 1)) (= seed0_var_0xINPUT_178817 (str.++ seed0_T0_2 seed0_T1_2)) (= 0 (str.len seed0_T0_2)) (not (str.in_re seed0_T1_2 (re.++ (str.to_re "p") (str.to_re "t") (str.to_re "r") (str.to_re "a") (str.to_re "c") (str.to_re "k") (str.to_re "=")))))) (or (> (* seed0_I0_2 seed0_I0_2) (+ seed0_PCTEMP_LHS_1 970)) (distinct (div seed0_PCTEMP_LHS_1 seed0_PCTEMP_LHS_1) (* seed0_PCTEMP_LHS_1 seed0_PCTEMP_LHS_1)))) (or (= seed0_T_2 (not (= seed0_PCTEMP_LHS_1 (- 1)))) (xor (distinct (- seed0_I0_2 694) (div seed0_PCTEMP_LHS_1 seed0_PCTEMP_LHS_1)) (>= (- seed0_I0_2 (- 782)) (div seed0_PCTEMP_LHS_1 seed0_I0_2)))) (or seed0_T_2 (str.prefixof (str.++ seed0_T4_2 "0") (str.++ seed0_T4_2 "gsQjzfIYoZWwU")))))
(check-sat)
(exit)